# ORCA input file
# 
!B3LYP 6-311+G** Opt

%tddft
    NRoots 30
    MaxDim 5
end
* xyz 0 1
   C        2.87144        -0.10916         1.20664
   C        2.44342        -1.05593         0.08115
   C        0.91974        -1.19419         0.07432
   C        2.94480        -0.57785        -1.29683
   C        4.45134        -0.46700        -1.37799
   C        5.26061        -1.59748        -1.21919
   C        6.65296        -1.48545        -1.25067
   C        7.26777        -0.24306        -1.46506
   C        6.45170         0.88684        -1.63168
   C        5.06022         0.77519        -1.58829
   C        8.78513        -0.15735        -1.56149
   C        9.18945         0.36486        -2.94449
   C        9.50143         0.64581        -0.48409
   O        8.76334         1.05753         0.57059
   O       10.70370         0.88871        -0.52753
   H        2.51153        -0.47336         2.17409
   H        2.47169         0.89803         1.05021
   H        3.96146        -0.03527         1.27587
   H        2.86352        -2.04692         0.29439
   H        0.43276        -0.23517        -0.13272
   H        0.56053        -1.55246         1.04510
   H        0.59584        -1.91197        -0.68619
   H        2.48660         0.39047        -1.53921
   H        2.61106        -1.27192        -2.07930
   H        4.81160        -2.57672        -1.06755
   H        7.24935        -2.38734        -1.12491
   H        6.88909         1.86918        -1.80559
   H        4.45363         1.66833        -1.72028
   H        9.18533        -1.17571        -1.46024
   H        8.84885         1.39480        -3.10544
   H        8.76335        -0.25851        -3.73883
   H       10.27752         0.36437        -3.06623
   H        7.82131         0.79140         0.54207
*
