# ORCA input file
# 
!B3LYP STO-3G Opt

%tddft
    NRoots 30
    MaxDim 5
end
* xyz 0 1
   H        1.10619        -0.41173         0.44946
   C        2.05472        -0.09997        -0.01088
   C        1.78114         1.22654        -0.72627
   C        3.00148         0.16410         1.15800
   O        4.21906        -0.41471         1.09831
   O        2.69655         0.88218         2.10441
   C        2.45732        -1.23816        -0.94689
   C        2.18816        -2.56754        -0.56568
   C        2.54026        -3.63999        -1.39981
   C        3.11867        -3.39013        -2.64579
   C        3.40208        -2.08206        -3.02965
   C        3.09074        -1.01686        -2.18108
   C        2.28814        -5.05345        -1.01778
   O        1.92369        -5.84096        -1.88874
   C        2.48736        -5.53509         0.37656
   C        3.38324        -4.91612         1.25763
   C        3.53442        -5.40007         2.55916
   C        2.81363        -6.51774         2.97615
   C        1.94583        -7.15902         2.09338
   C        1.78392        -6.67147         0.79507
   H        1.38597         1.97331        -0.02864
   H        1.04568         1.09707        -1.52796
   H        2.69333         1.65214        -1.15938
   H        4.38866        -0.94038         0.29238
   H        1.68159        -2.76323         0.37910
   H        3.34990        -4.21443        -3.31826
   H        3.85712        -1.89097        -3.99963
   H        3.33154        -0.01245        -2.52320
   H        3.98601        -4.06692         0.95063
   H        4.22100        -4.90994         3.24509
   H        2.93721        -6.89734         3.98748
   H        1.39738        -8.04156         2.41344
   H        1.11007        -7.18267         0.11004
*
