# ORCA input file
# 
!TPSS def2-TZVP Opt CPCM(WATER)

* xyz 0 1
   C        2.66158         3.56603         1.95918
   C        2.35674         2.06714         1.98319
   C        0.84031         1.84916         1.95989
   C        3.01330         1.33196         0.79902
   C        4.52232         1.42683         0.74235
   C        5.32189         0.93981         1.78164
   C        6.71736         0.95939         1.67882
   C        7.34510         1.45003         0.52519
   C        6.54220         1.97800        -0.49742
   C        5.14902         1.96394        -0.38839
   C        8.85656         1.31629         0.36211
   C        9.16613         0.42959        -0.85305
   C        9.67095         2.60747         0.26817
   O        9.01350         3.75250         0.54683
   O       10.86903         2.61984        -0.01082
   H        2.17485         4.07238         2.79932
   H        2.30617         4.02764         1.03185
   H        3.73615         3.75486         2.04404
   H        2.73714         1.65566         2.92652
   H        0.40138         2.19680         1.01811
   H        0.35521         2.39292         2.77772
   H        0.59667         0.78776         2.07524
   H        2.58674         1.71094        -0.13932
   H        2.74929         0.26572         0.83430
   H        4.86391         0.51065         2.67178
   H        7.30510         0.54371         2.49678
   H        6.98693         2.37275        -1.41001
   H        4.55282         2.35109        -1.21386
   H        9.24612         0.80732         1.25358
   H        8.79792         0.87448        -1.78414
   H        8.70009        -0.55619        -0.74548
   H       10.24379         0.28017        -0.97464
   H        8.07580         3.64641         0.78834
*
