# ORCA input file
# 
!B3LYP 6-311+G** Opt CPCM(WATER)

* xyz 0 1
   H        2.00250        -0.97652        -0.40737
   C        2.12691         0.04515        -0.01930
   C        3.18653         0.74372        -0.88584
   C        0.77693         0.72908        -0.24715
   O       -0.09000         0.66634         0.79607
   O        0.43454         1.24174        -1.30655
   C        2.59669        -0.05102         1.43442
   C        2.81147        -1.30422         2.04756
   C        3.29655        -1.38571         3.36637
   C        3.61456        -0.21427         4.05923
   C        3.37408         1.02811         3.47642
   C        2.85272         1.11055         2.18336
   C        3.51606        -2.67581         4.06883
   O        4.46597        -2.78146         4.84235
   C        2.60272        -3.83812         3.89052
   C        1.24693        -3.67494         3.58221
   C        0.43272        -4.79349         3.39241
   C        0.96277        -6.07579         3.53543
   C        2.29946        -6.24394         3.89158
   C        3.11809        -5.12845         4.07659
   H        2.86710         0.79991        -1.93235
   H        4.14117         0.20650        -0.85983
   H        3.36875         1.77216        -0.55415
   H        0.26521         0.23991         1.59854
   H        2.63348        -2.21860         1.48382
   H        4.04752        -0.26791         5.05642
   H        3.60568         1.93642         4.03029
   H        2.67279         2.09775         1.75905
   H        0.80211        -2.68733         3.50254
   H       -0.61725        -4.66734         3.13986
   H        0.32782        -6.94633         3.38409
   H        2.70685        -7.24304         4.02571
   H        4.15777        -5.26632         4.36571
*
