# ORCA input file
# 
!PBE STO-3G Opt

%tddft
    NRoots 30
    MaxDim 5
end
* xyz 0 1
   C        2.67569         1.76515         3.50557
   C        2.36944         0.52730         2.66006
   C        0.85304         0.35239         2.53184
   C        3.01280         0.61958         1.26293
   C        4.52308         0.73287         1.26152
   C        5.32588        -0.26385         1.83075
   C        6.72138        -0.18302         1.76021
   C        7.34776         0.88750         1.10340
   C        6.53877         1.90312         0.57006
   C        5.14455         1.82624         0.64881
   C        8.85935         0.87626         0.89416
   C        9.16989         0.86797        -0.60844
   C        9.67830         1.97118         1.57297
   O        9.02053         2.78926         2.42048
   O       10.88237         2.10266         1.39315
   H        2.20498         1.68559         4.49092
   H        2.30498         2.67554         3.02336
   H        3.75199         1.87974         3.66775
   H        2.76094        -0.35184         3.18620
   H        0.40084         1.17948         1.97345
   H        0.38024         0.31473         3.51918
   H        0.61040        -0.58007         2.01109
   H        2.58137         1.47469         0.72497
   H        2.74568        -0.26733         0.67243
   H        4.87092        -1.12910         2.30841
   H        7.30958        -0.99192         2.19026
   H        6.98078         2.75448         0.05361
   H        4.54773         2.61497         0.19900
   H        9.24509        -0.06091         1.31903
   H        8.79507         1.76990        -1.10604
   H        8.71091         0.00118        -1.09752
   H       10.24776         0.82625        -0.79396
   H        8.06926         2.59022         2.53077
*
