# ORCA input file
# 
!B3LYP STO-3G Opt CPCM(WATER)
* xyz 0 1
   C       11.42671         3.80709        -3.92763
   C       10.11061         3.36529        -3.28256
   O       10.47986         2.62818        -2.11364
   C        9.39986         2.04537        -1.38033
   O        9.97563         1.69846        -0.10011
   C        9.10067         1.11489         0.86733
   C        8.72193        -0.31758         0.46155
   O        7.95196        -0.36903        -0.75683
   C        7.87228        -1.01626         1.52204
   N        7.79356        -2.43980         1.11475
   C        8.41572        -0.80283         2.94586
   O        7.38383        -1.23723         3.85981
   C        7.72097        -1.12887         5.26656
   C        8.97991        -1.96102         5.57562
   C        9.69732        -1.57432         6.85897
   O        8.73948        -3.35927         5.40992
   C        7.64657        -3.92543         6.14481
   O        8.05203        -4.07578         7.49300
   C        7.29001        -4.85483         8.42110
   C        6.93659        -6.27733         7.92236
   O        5.77185        -6.24149         7.06857
   C        6.57373        -7.26002         9.06338
   N        6.53028        -8.64796         8.54111
   C        7.50725        -7.11361        10.28556
   O        7.04294        -7.87344        11.39216
   O        7.55397        -5.75640        10.68786
   C        8.17736        -4.94221         9.69209
   C        8.43231        -3.56083        10.31759
   O        9.27038        -3.64979        11.49159
   C       10.60186        -3.73823        11.26182
   C       11.36596        -3.79508        12.55489
   O       11.12446        -3.76816        10.16157
   C        6.30253        -3.15224         5.92247
   N        5.75308        -3.45109         4.57569
   C        6.49341        -1.62465         6.08105
   C        6.55882        -1.25170         7.56882
   O        8.75492         0.55799         3.20152
   C        9.73264         1.08173         2.27763
   C       10.12614         2.48558         2.78718
   O       11.10401         3.14732         1.97364
   C       12.37684         2.69307         2.11240
   C       13.29003         3.35421         1.13279
   O       12.73568         1.84239         2.90624
   C        8.15356         2.99169        -1.19421
   N        6.89927         2.26993        -0.80631
   C        7.84766         3.94159        -2.38568
   C        6.80466         4.98075        -1.93487
   C        9.21134         4.53140        -2.83112
   O        9.19996         5.59841        -3.79115
   C        9.11861         6.92259        -3.21963
   O        8.99750         7.95069        -4.21743
   C       10.15647         8.70170        -4.61438
   C       10.99629         7.97203        -5.67183
   O       11.63598         8.87895        -6.60880
   C       12.99315         8.86422        -6.65115
   C       13.47924         9.35128        -7.99298
   O       13.71702         8.45648        -5.74549
   C       10.87654         9.23535        -3.36962
   O        9.94988        10.08639        -2.66679
   C       11.27925         8.12181        -2.42289
   O       12.27602         7.27659        -2.97179
   C       10.10975         7.22060        -2.03807
   N        9.36866         7.70712        -0.87118
   H       11.99767         2.92641        -4.24688
   H       12.06061         4.33376        -3.20685
   H       11.27501         4.44298        -4.80419
   H        9.59220         2.70773        -3.99156
   H        9.13248         1.14525        -1.93674
   H        8.20772         1.72533         0.99006
   H        9.64760        -0.87117         0.25780
   H        7.16271         0.18040        -0.58892
   H        6.84662        -0.62603         1.47714
   H        7.19906        -2.96896         1.73883
   H        7.38678        -2.44327         0.17351
   H        9.30914        -1.42424         3.03608
   H        7.88050        -0.06594         5.48277
   H        9.73577        -1.74290         4.82410
   H        9.40933        -2.16724         7.71789
   H        9.56327        -0.51205         7.08659
   H       10.77290        -1.74298         6.73259
   H        7.55278        -4.92465         5.71428
   H        6.36338        -4.31688         8.65513
   H        7.76688        -6.68128         7.32985
   H        6.02268        -6.01672         6.15614
   H        5.54874        -7.03540         9.38896
   H        7.47889        -8.95854         8.32708
   H        6.04902        -8.61233         7.63727
   H        8.51981        -7.46866        10.06024
   H        6.07660        -7.91764        11.30481
   H        9.15022        -5.38245         9.43388
   H        7.48604        -3.12332        10.65206
   H        8.88306        -2.86145         9.61425
   H       10.68602        -3.75017        13.41005
   H       12.04364        -2.94214        12.60935
   H       11.92348        -4.73327        12.60458
   H        5.54958        -3.49788         6.63907
   H        6.44398        -3.10066         3.90027
   H        4.94207        -2.84934         4.41472
   H        5.59743        -1.12009         5.68849
   H        7.32243        -1.80453         8.11286
   H        5.60673        -1.48038         8.06263
   H        6.75976        -0.18591         7.70469
   H       10.62393         0.44281         2.28067
   H       10.47058         2.43807         3.82989
   H        9.23875         3.13107         2.81513
   H       12.84188         4.24245         0.67936
   H       13.54808         2.62910         0.33517
   H       14.19582         3.67673         1.64193
   H        8.40283         3.63202        -0.33298
   H        6.38928         2.02263        -1.65802
   H        6.30100         2.93217        -0.30905
   H        7.40881         3.38259        -3.22059
   H        7.16512         5.54419        -1.06490
   H        5.86424         4.50133        -1.63357
   H        6.53398         5.67240        -2.73231
   H        9.64554         4.86554        -1.89496
   H        8.11653         6.95185        -2.79737
   H        9.74201         9.58969        -5.11244
   H       11.70539         7.25211        -5.25469
   H       10.31714         7.38222        -6.29636
   H       13.31578         8.57453        -8.74575
   H       14.55282         9.57168        -7.95064
   H       12.96361        10.26829        -8.28815
   H       11.75067         9.83557        -3.64094
   H        9.09702         9.60468        -2.71097
   H       11.71216         8.54055        -1.50681
   H       13.00415         7.82282        -3.33733
   H       10.59602         6.31822        -1.67484
   H        8.66185         8.38976        -1.13076
   H        9.98461         8.15996        -0.20046
*