# ORCA input file
# 
!TPSS STO-3G Opt CPCM(WATER)

* xyz 0 1
   C        2.51158         1.94756         2.60573
   C        2.25536         0.96160         1.46447
   C        0.74524         0.81106         1.24936
   C        2.92580         1.40939         0.15172
   C        4.43034         1.55789         0.20717
   C        5.26167         0.46240         0.46590
   C        6.65476         0.59883         0.42551
   C        7.24791         1.83155         0.11193
   C        6.41047         2.93519        -0.11026
   C        5.02103         2.79876        -0.06128
   C        8.76102         1.93225        -0.05663
   C        9.09540         2.35216        -1.49427
   C        9.51272         2.83111         0.91923
   O        8.80891         3.32035         1.96468
   O       10.70739         3.08621         0.80213
   H        2.02343         1.60730         3.52519
   H        2.12250         2.94266         2.36454
   H        3.58050         2.04224         2.81968
   H        2.65201        -0.01745         1.76022
   H        0.28537         1.76747         0.97560
   H        0.25582         0.45223         2.16115
   H        0.53153         0.09307         0.45069
   H        2.47657         2.35652        -0.17573
   H        2.69614         0.68540        -0.64197
   H        4.83180        -0.51614         0.67097
   H        7.26813        -0.28320         0.60297
   H        6.82783         3.91067        -0.35575
   H        4.39927         3.66864        -0.26536
   H        9.18294         0.93039         0.10471
   H        8.71034         3.35199        -1.72490
   H        8.66417         1.65151        -2.21781
   H       10.17758         2.38088        -1.65965
   H        7.87163         3.04560         1.99566
*
