# ORCA input file
# 
!PBE STO-3G Opt CPCM(WATER)
* xyz 0 2
   C        0.00000         0.00000         0.00000
   C        0.00000         0.00000         0.00000
   O        0.00000         0.00000         0.00000
   C        0.00000         0.00000         0.00000
   O        0.00000         0.00000         0.00000
   C        0.00000         0.00000         0.00000
   C        0.00000         0.00000         0.00000
   O        0.00000         0.00000         0.00000
   C        0.00000         0.00000         0.00000
   N        0.00000         0.00000         0.00000
   C        0.00000         0.00000         0.00000
   O        0.00000         0.00000         0.00000
   C        0.00000         0.00000         0.00000
   C        0.00000         0.00000         0.00000
   C        0.00000         0.00000         0.00000
   O        0.00000         0.00000         0.00000
   C        0.00000         0.00000         0.00000
   O        0.00000         0.00000         0.00000
   C        0.00000         0.00000         0.00000
   C        0.00000         0.00000         0.00000
   O        0.00000         0.00000         0.00000
   C        0.00000         0.00000         0.00000
   N        0.00000         0.00000         0.00000
   C        0.00000         0.00000         0.00000
   O        0.00000         0.00000         0.00000
   O        0.00000         0.00000         0.00000
   C        0.00000         0.00000         0.00000
   C        0.00000         0.00000         0.00000
   O        0.00000         0.00000         0.00000
   C        0.00000         0.00000         0.00000
   C        0.00000         0.00000         0.00000
   O        0.00000         0.00000         0.00000
   C        0.00000         0.00000         0.00000
   N        0.00000         0.00000         0.00000
   C        0.00000         0.00000         0.00000
   C        0.00000         0.00000         0.00000
   O        0.00000         0.00000         0.00000
   C        0.00000         0.00000         0.00000
   C        0.00000         0.00000         0.00000
   O        0.00000         0.00000         0.00000
   C        0.00000         0.00000         0.00000
   C        0.00000         0.00000         0.00000
   O        0.00000         0.00000         0.00000
   C        0.00000         0.00000         0.00000
   N        0.00000         0.00000         0.00000
   C        0.00000         0.00000         0.00000
   C        0.00000         0.00000         0.00000
   C        0.00000         0.00000         0.00000
   O        0.00000         0.00000         0.00000
   C        0.00000         0.00000         0.00000
   O        0.00000         0.00000         0.00000
   C        0.00000         0.00000         0.00000
   C        0.00000         0.00000         0.00000
   O        0.00000         0.00000         0.00000
   C        0.00000         0.00000         0.00000
   C        0.00000         0.00000         0.00000
   O        0.00000         0.00000         0.00000
   C        0.00000         0.00000         0.00000
   O        0.00000         0.00000         0.00000
   C        0.00000         0.00000         0.00000
   O        0.00000         0.00000         0.00000
   C        0.00000         0.00000         0.00000
   N        0.00000         0.00000         0.00000
*
