# ORCA input file
# 
!TPSS def2-TZVP Opt

%tddft
    NRoots 30
    MaxDim 5
end
* xyz 0 1
   H        2.99915        -0.59482        -0.34059
   C        2.10378        -0.01297        -0.08462
   C        1.05032        -0.28195        -1.16588
   C        1.63311        -0.57603         1.25651
   O        2.13412         0.03527         2.35434
   O        0.91295        -1.55966         1.36234
   C        2.47423         1.46674        -0.07906
   C        3.78469         1.86990        -0.39931
   C        4.11807         3.23189        -0.46005
   C        3.13324         4.19567        -0.22177
   C        1.83803         3.80664         0.11446
   C        1.51181         2.45269         0.19252
   C        5.47566         3.70437        -0.84698
   O        5.57797         4.74591        -1.48773
   C        6.70779         2.95851        -0.48076
   C        6.79747         2.20439         0.69555
   C        7.97785         1.52353         0.99996
   C        9.07757         1.61359         0.14671
   C        9.00404         2.38924        -1.00942
   C        7.82309         3.06382        -1.32205
   H        0.84493        -1.35384        -1.25723
   H        1.38631         0.07941        -2.14407
   H        0.09783         0.20863        -0.93395
   H        2.69503         0.81074         2.16941
   H        4.53372         1.11835        -0.64245
   H        3.37083         5.25491        -0.31116
   H        1.07556         4.56211         0.29220
   H        0.48630         2.17742         0.43695
   H        5.96911         2.15137         1.39542
   H        8.04593         0.93196         1.90975
   H        9.99880         1.08965         0.39056
   H        9.86735         2.47447        -1.66491
   H        7.77542         3.67607        -2.22102
*
