# ORCA input file
# 
!B3LYP STO-3G Opt

%tddft
    NRoots 30
    MaxDim 5
end
* xyz 0 1
   C        2.61581        -3.88133        -0.54439
   C        2.30712        -2.53453        -1.20072
   C        0.78978        -2.32508        -1.25519
   C        2.97892        -1.37043        -0.44728
   C        4.49014        -1.43992        -0.37082
   C        5.28132        -1.44182        -1.52424
   C        6.68061        -1.41159        -1.43194
   C        7.31787        -1.36158        -0.18274
   C        6.52138        -1.41135         0.96935
   C        5.12533        -1.44926         0.87607
   C        8.83031        -1.14689        -0.09838
   C        9.11651         0.17309         0.62847
   C        9.66865        -2.26129         0.53572
   O        9.02071        -3.41185         0.82973
   O       10.86783        -2.14395         0.74380
   H        2.11699        -4.69567        -1.07999
   H        2.27701        -3.90083         0.49688
   H        3.68944        -4.09252        -0.55778
   H        2.67553        -2.56367        -2.23334
   H        0.36437        -2.21373        -0.25148
   H        0.29536        -3.17614        -1.73619
   H        0.53955        -1.42732        -1.83020
   H        2.56450        -1.31747         0.56854
   H        2.71221        -0.41734        -0.92359
   H        4.81842        -1.43208        -2.50803
   H        7.25978        -1.38546        -2.35284
   H        6.97071        -1.37845         1.96183
   H        4.53782        -1.45448         1.79131
   H        9.21153        -1.05955        -1.12192
   H        8.73004         0.16941         1.65252
   H        8.65524         1.01648         0.10085
   H       10.19191         0.36892         0.69449
   H        8.07467        -3.42397         0.60296
*
