# ORCA input file
# 
!PBE STO-3G Opt

%tddft
    NRoots 30
    MaxDim 5
end
* xyz 0 1
   H        1.20551         0.10685         0.44594
   C        2.19632         0.04506        -0.02783
   C        3.21572        -0.37109         1.03186
   C        2.03439        -1.05108        -1.08502
   O        1.51321        -2.19903        -0.58151
   O        2.30324        -0.95546        -2.27392
   C        2.50710         1.44593        -0.54890
   C        3.40786         1.70154        -1.59807
   C        3.57635         3.00431        -2.10322
   C        2.93975         4.07783        -1.47365
   C        2.10702         3.84904        -0.38159
   C        1.88367         2.54538         0.06643
   C        4.40386         3.29606        -3.30921
   O        4.98348         4.37514        -3.39375
   C        4.52609         2.31329        -4.42517
   C        5.68066         2.33025        -5.21731
   C        5.84753         1.38292        -6.23056
   C        4.86240         0.42187        -6.45742
   C        3.69446         0.42873        -5.70106
   C        3.51418         1.38534        -4.70458
   H        2.94169        -1.32446         1.49691
   H        3.27834         0.37448         1.83212
   H        4.21497        -0.49366         0.60096
   H        1.29183        -2.17361         0.36870
   H        3.95639         0.87710        -2.04912
   H        3.08408         5.09274        -1.84030
   H        1.61795         4.68612         0.11116
   H        1.21218         2.39612         0.90952
   H        6.45597         3.07343        -5.04122
   H        6.75113         1.38817        -6.83519
   H        5.00308        -0.33209        -7.22859
   H        2.92174        -0.31696        -5.87375
   H        2.58039         1.38013        -4.14719
*
