# ORCA input file
# 
!TPSS STO-3G Opt

%tddft
    NRoots 30
    MaxDim 5
end
* xyz 0 1
   H        1.20129        -0.16932         0.23897
   C        2.26794        -0.11673        -0.02274
   C        3.06219        -0.56629         1.20342
   C        2.43159        -1.11202        -1.17182
   O        1.77888        -0.74114        -2.30430
   O        3.04791        -2.16647        -1.10611
   C        2.60248         1.32807        -0.37484
   C        3.66812         1.67324        -1.22306
   C        3.89277         3.01366        -1.58287
   C        3.12282         4.02608        -1.00191
   C        2.10481         3.69973        -0.10959
   C        1.83730         2.36158         0.18969
   C        4.92807         3.41042        -2.58203
   O        5.48927         4.49875        -2.46391
   C        5.27589         2.52516        -3.72903
   C        6.55331         2.62100        -4.29124
   C        6.92612         1.76780        -5.33332
   C        6.02518         0.81856        -5.81378
   C        4.73811         0.74719        -5.28495
   C        4.35571         1.61422        -4.26425
   H        2.74302        -1.56412         1.52440
   H        2.91450         0.11804         2.04595
   H        4.13600        -0.61445         0.99043
   H        1.29481         0.09946        -2.22163
   H        4.31939         0.89273        -1.61410
   H        3.31457         5.06879        -1.24530
   H        1.51553         4.48948         0.35131
   H        1.03152         2.13485         0.88711
   H        7.26495         3.35624        -3.91738
   H        7.92251         1.83890        -5.76326
   H        6.32312         0.13898        -6.60964
   H        4.03290         0.01141        -5.66607
   H        3.33494         1.55906        -3.89816
*
